; SWAP1 SWAP3 POP PUSH cw_1 SWAP1 POP => POP SWAP2 POP PUSH cw_1
(set-option :produce-proofs true)
; 
(set-info :status unknown)
(declare-fun storage_t ((_ BitVec 256) (_ BitVec 256) (_ BitVec 256) (_ BitVec 256) (_ BitVec 256) Int (_ BitVec 256)) (_ BitVec 256))
(declare-fun w_1 () (_ BitVec 256))
(declare-fun storage_s ((_ BitVec 256) (_ BitVec 256) (_ BitVec 256) (_ BitVec 256) (_ BitVec 256) Int (_ BitVec 256)) (_ BitVec 256))
(declare-fun exc_halt_t (Int) Bool)
(declare-fun exc_halt_s (Int) Bool)
(declare-fun sc_t (Int) (_ BitVec 6))
(declare-fun stack_t ((_ BitVec 256) (_ BitVec 256) (_ BitVec 256) (_ BitVec 256) (_ BitVec 256) Int (_ BitVec 6)) (_ BitVec 256))
(declare-fun stack_s ((_ BitVec 256) (_ BitVec 256) (_ BitVec 256) (_ BitVec 256) (_ BitVec 256) Int (_ BitVec 6)) (_ BitVec 256))
(declare-fun sc_s (Int) (_ BitVec 6))
(declare-fun used_gas_t ((_ BitVec 256) (_ BitVec 256) (_ BitVec 256) (_ BitVec 256) (_ BitVec 256) Int) Int)
(declare-fun used_gas_s ((_ BitVec 256) (_ BitVec 256) (_ BitVec 256) (_ BitVec 256) (_ BitVec 256) Int) Int)
(assert
 (exists ((x_0 (_ BitVec 256)) (x_1 (_ BitVec 256)) (x_2 (_ BitVec 256)) (x_3 (_ BitVec 256)) )(let (($x1123 (forall ((w (_ BitVec 256)) )(let ((?x9797 (storage_t x_0 x_1 x_2 x_3 w_1 4 w)))
 (let ((?x11374 (storage_s x_0 x_1 x_2 x_3 w_1 6 w)))
 (= ?x11374 ?x9797))))
 ))
 (let (($x7854 (exc_halt_t 4)))
 (let (($x772 (exc_halt_s 6)))
 (let (($x4404 (= $x772 $x7854)))
 (let (($x4470 (forall ((n (_ BitVec 6)) )(let ((?x4818 (sc_t 4)))
 (let (($x6358 (bvsle ?x4818 n)))
 (let ((?x6845 (stack_t x_0 x_1 x_2 x_3 w_1 4 n)))
 (let ((?x8296 (stack_s x_0 x_1 x_2 x_3 w_1 6 n)))
 (let (($x3739 (= ?x8296 ?x6845)))
 (or $x3739 $x6358)))))))
 ))
 (let ((?x4818 (sc_t 4)))
 (let ((?x926 (sc_s 6)))
 (let (($x7899 (= ?x926 ?x4818)))
 (let ((?x3002 (used_gas_t x_0 x_1 x_2 x_3 w_1 0)))
 (let ((?x4974 (used_gas_s x_0 x_1 x_2 x_3 w_1 0)))
 (let (($x10070 (= ?x4974 ?x3002)))
 (let (($x1370 (forall ((w (_ BitVec 256)) )(let ((?x6531 (storage_t x_0 x_1 x_2 x_3 w_1 0 w)))
 (let ((?x600 (storage_s x_0 x_1 x_2 x_3 w_1 0 w)))
 (= ?x600 ?x6531))))
 ))
 (let (($x56 (exc_halt_t 0)))
 (let (($x57 (exc_halt_s 0)))
 (let (($x58 (= $x57 $x56)))
 (let (($x10820 (forall ((n (_ BitVec 6)) )(let ((?x1697 (stack_t x_0 x_1 x_2 x_3 w_1 0 n)))
 (let ((?x4332 (stack_s x_0 x_1 x_2 x_3 w_1 0 n)))
 (let (($x8365 (= ?x4332 ?x1697)))
 (let ((?x63 (sc_t 0)))
 (let (($x6552 (bvsle ?x63 n)))
 (or $x6552 $x8365)))))))
 ))
 (let ((?x63 (sc_t 0)))
 (let ((?x72 (sc_s 0)))
 (let (($x73 (= ?x72 ?x63)))
 (let (($x11926 (not (= ((_ extract 6 6) (bvadd (_ bv1 7) (concat (_ bv0 1) (sc_t 3)))) (_ bv0 1)))))
 (let (($x3614 (exc_halt_t 3)))
 (let (($x9791 (= $x7854 (or $x3614 $x11926))))
 (let (($x9158 (forall ((w (_ BitVec 256)) )(let ((?x3151 (storage_t x_0 x_1 x_2 x_3 w_1 3 w)))
 (let ((?x9797 (storage_t x_0 x_1 x_2 x_3 w_1 4 w)))
 (= ?x9797 ?x3151))))
 ))
 (let (($x4353 (forall ((n (_ BitVec 6)) )(let ((?x9743 (stack_t x_0 x_1 x_2 x_3 w_1 3 n)))
 (let ((?x6845 (stack_t x_0 x_1 x_2 x_3 w_1 4 n)))
 (let (($x8216 (= ?x6845 ?x9743)))
 (let ((?x11304 (sc_t 3)))
 (let (($x5590 (bvsle ?x11304 n)))
 (or $x5590 $x8216)))))))
 ))
 (let (($x11867 (= ?x4818 (bvadd (_ bv1 6) (sc_t 3)))))
 (let (($x11756 (= (used_gas_t x_0 x_1 x_2 x_3 w_1 4) (+ 3 (used_gas_t x_0 x_1 x_2 x_3 w_1 3)))))
 (let (($x10396 (= $x3614 (or (exc_halt_t 2) (not (bvsle (_ bv0 6) (bvadd (_ bv63 6) (sc_t 2))))))))
 (let (($x11573 (forall ((w (_ BitVec 256)) )(let ((?x11968 (storage_t x_0 x_1 x_2 x_3 w_1 2 w)))
 (let ((?x3151 (storage_t x_0 x_1 x_2 x_3 w_1 3 w)))
 (= ?x3151 ?x11968))))
 ))
 (let (($x731 (forall ((n (_ BitVec 6)) )(let ((?x4473 (stack_t x_0 x_1 x_2 x_3 w_1 2 n)))
 (let ((?x9743 (stack_t x_0 x_1 x_2 x_3 w_1 3 n)))
 (let (($x7255 (= ?x9743 ?x4473)))
 (let ((?x6158 (sc_t 2)))
 (let ((?x5173 (bvadd (_ bv63 6) ?x6158)))
 (let (($x3972 (bvsle ?x5173 n)))
 (or $x3972 $x7255))))))))
 ))
 (let ((?x6158 (sc_t 2)))
 (let ((?x5173 (bvadd (_ bv63 6) ?x6158)))
 (let ((?x11304 (sc_t 3)))
 (let (($x1918 (= ?x11304 ?x5173)))
 (let ((?x3513 (used_gas_t x_0 x_1 x_2 x_3 w_1 3)))
 (let (($x9674 (exc_halt_t 2)))
 (let (($x11591 (= $x9674 (or (exc_halt_t 1) (not (bvsle (_ bv0 6) (bvadd (_ bv61 6) (sc_t 1))))))))
 (let (($x9499 (forall ((w (_ BitVec 256)) )(let ((?x9299 (storage_t x_0 x_1 x_2 x_3 w_1 1 w)))
 (let ((?x11968 (storage_t x_0 x_1 x_2 x_3 w_1 2 w)))
 (= ?x11968 ?x9299))))
 ))
 (let (($x5279 (forall ((n (_ BitVec 6)) )(let ((?x7154 (sc_t 1)))
 (let ((?x2637 (bvadd (_ bv61 6) ?x7154)))
 (let (($x3362 (bvsle ?x2637 n)))
 (let ((?x10460 (stack_t x_0 x_1 x_2 x_3 w_1 1 n)))
 (let ((?x4473 (stack_t x_0 x_1 x_2 x_3 w_1 2 n)))
 (let (($x2562 (= ?x4473 ?x10460)))
 (or $x2562 $x3362))))))))
 ))
 (let ((?x7154 (sc_t 1)))
 (let (($x5077 (= ?x6158 ?x7154)))
 (let ((?x3385 (used_gas_t x_0 x_1 x_2 x_3 w_1 2)))
 (let (($x6594 (= ?x3385 (+ 3 (used_gas_t x_0 x_1 x_2 x_3 w_1 1)))))
 (let ((?x11582 (bvadd (_ bv62 6) ?x7154)))
 (let ((?x6777 (stack_t x_0 x_1 x_2 x_3 w_1 1 ?x11582)))
 (let ((?x3400 (bvadd (_ bv63 6) ?x7154)))
 (let ((?x10642 (stack_t x_0 x_1 x_2 x_3 w_1 1 ?x3400)))
 (let ((?x2637 (bvadd (_ bv61 6) ?x7154)))
 (let ((?x8520 (stack_t x_0 x_1 x_2 x_3 w_1 1 ?x2637)))
 (let ((?x1862 (stack_t x_0 x_1 x_2 x_3 w_1 2 ?x5173)))
 (let (($x8377 (exc_halt_t 1)))
 (let (($x5967 (= $x8377 (or $x56 (not (bvsle (_ bv0 6) (bvadd (_ bv63 6) ?x63)))))))
 (let (($x3724 (forall ((w (_ BitVec 256)) )(let ((?x6531 (storage_t x_0 x_1 x_2 x_3 w_1 0 w)))
 (let ((?x9299 (storage_t x_0 x_1 x_2 x_3 w_1 1 w)))
 (= ?x9299 ?x6531))))
 ))
 (let (($x10469 (forall ((n (_ BitVec 6)) )(let ((?x63 (sc_t 0)))
 (let ((?x11871 (bvadd (_ bv63 6) ?x63)))
 (let (($x3708 (bvsle ?x11871 n)))
 (let ((?x1697 (stack_t x_0 x_1 x_2 x_3 w_1 0 n)))
 (let ((?x10460 (stack_t x_0 x_1 x_2 x_3 w_1 1 n)))
 (let (($x278 (= ?x10460 ?x1697)))
 (or $x278 $x3708))))))))
 ))
 (let ((?x11871 (bvadd (_ bv63 6) ?x63)))
 (let (($x4653 (= ?x7154 ?x11871)))
 (let (($x5460 (= $x772 (or (exc_halt_s 5) (not (bvsle (_ bv0 6) (bvadd (_ bv63 6) (sc_s 5))))))))
 (let (($x5001 (forall ((w (_ BitVec 256)) )(let ((?x5373 (storage_s x_0 x_1 x_2 x_3 w_1 5 w)))
 (let ((?x11374 (storage_s x_0 x_1 x_2 x_3 w_1 6 w)))
 (= ?x11374 ?x5373))))
 ))
 (let (($x10431 (forall ((n (_ BitVec 6)) )(let ((?x682 (stack_s x_0 x_1 x_2 x_3 w_1 5 n)))
 (let ((?x8296 (stack_s x_0 x_1 x_2 x_3 w_1 6 n)))
 (let ((?x4319 (sc_s 5)))
 (let ((?x4481 (bvadd (_ bv63 6) ?x4319)))
 (let (($x802 (bvsle ?x4481 n)))
 (or $x802 (= ?x8296 ?x682))))))))
 ))
 (let ((?x4319 (sc_s 5)))
 (let ((?x4481 (bvadd (_ bv63 6) ?x4319)))
 (let (($x1150 (= ?x926 ?x4481)))
 (let (($x6649 (= (used_gas_s x_0 x_1 x_2 x_3 w_1 6) (+ 2 (used_gas_s x_0 x_1 x_2 x_3 w_1 5)))))
 (let (($x11317 (exc_halt_s 5)))
 (let (($x9247 (= $x11317 (or (exc_halt_s 4) (not (bvsle (_ bv0 6) (bvadd (_ bv62 6) (sc_s 4))))))))
 (let (($x11570 (forall ((w (_ BitVec 256)) )(let ((?x3473 (storage_s x_0 x_1 x_2 x_3 w_1 4 w)))
 (let ((?x5373 (storage_s x_0 x_1 x_2 x_3 w_1 5 w)))
 (= ?x5373 ?x3473))))
 ))
 (let (($x2727 (forall ((n (_ BitVec 6)) )(let ((?x4305 (sc_s 4)))
 (let ((?x103 (bvadd (_ bv62 6) ?x4305)))
 (let (($x8692 (bvsle ?x103 n)))
 (let ((?x7808 (stack_s x_0 x_1 x_2 x_3 w_1 4 n)))
 (let ((?x682 (stack_s x_0 x_1 x_2 x_3 w_1 5 n)))
 (or (= ?x682 ?x7808) $x8692)))))))
 ))
 (let ((?x4305 (sc_s 4)))
 (let (($x3901 (= ?x4319 ?x4305)))
 (let ((?x2891 (used_gas_s x_0 x_1 x_2 x_3 w_1 5)))
 (let (($x10197 (= ?x2891 (+ 3 (used_gas_s x_0 x_1 x_2 x_3 w_1 4)))))
 (let ((?x8905 (bvadd (_ bv63 6) ?x4305)))
 (let ((?x6038 (stack_s x_0 x_1 x_2 x_3 w_1 4 ?x8905)))
 (let (($x9089 (= (stack_s x_0 x_1 x_2 x_3 w_1 5 (bvadd (_ bv62 6) ?x4319)) ?x6038)))
 (let (($x11545 (= (stack_s x_0 x_1 x_2 x_3 w_1 5 ?x4481) (stack_s x_0 x_1 x_2 x_3 w_1 4 (bvadd (_ bv62 6) ?x4305)))))
 (let (($x4087 (not (= ((_ extract 6 6) (bvadd (_ bv1 7) (concat (_ bv0 1) (sc_s 3)))) (_ bv0 1)))))
 (let (($x292 (exc_halt_s 3)))
 (let (($x7172 (exc_halt_s 4)))
 (let (($x4561 (forall ((w (_ BitVec 256)) )(let ((?x3455 (storage_s x_0 x_1 x_2 x_3 w_1 3 w)))
 (let ((?x3473 (storage_s x_0 x_1 x_2 x_3 w_1 4 w)))
 (= ?x3473 ?x3455))))
 ))
 (let (($x836 (forall ((n (_ BitVec 6)) )(let ((?x5592 (stack_s x_0 x_1 x_2 x_3 w_1 3 n)))
 (let ((?x7808 (stack_s x_0 x_1 x_2 x_3 w_1 4 n)))
 (let (($x470 (= ?x7808 ?x5592)))
 (or $x470 (bvsle (sc_s 3) n))))))
 ))
 (let (($x3039 (= ?x4305 (bvadd (_ bv1 6) (sc_s 3)))))
 (let ((?x977 (used_gas_s x_0 x_1 x_2 x_3 w_1 4)))
 (let (($x3433 (= ?x977 (+ 3 (used_gas_s x_0 x_1 x_2 x_3 w_1 3)))))
 (let (($x6355 (= $x292 (or (exc_halt_s 2) (not (bvsle (_ bv0 6) (bvadd (_ bv63 6) (sc_s 2))))))))
 (let (($x10913 (forall ((w (_ BitVec 256)) )(let ((?x2993 (storage_s x_0 x_1 x_2 x_3 w_1 2 w)))
 (let ((?x3455 (storage_s x_0 x_1 x_2 x_3 w_1 3 w)))
 (= ?x3455 ?x2993))))
 ))
 (let (($x7088 (forall ((n (_ BitVec 6)) )(let ((?x218 (sc_s 2)))
 (let ((?x9412 (bvadd (_ bv63 6) ?x218)))
 (let (($x7633 (bvsle ?x9412 n)))
 (let ((?x1808 (stack_s x_0 x_1 x_2 x_3 w_1 2 n)))
 (let ((?x5592 (stack_s x_0 x_1 x_2 x_3 w_1 3 n)))
 (let (($x7151 (= ?x5592 ?x1808)))
 (or $x7151 $x7633))))))))
 ))
 (let ((?x218 (sc_s 2)))
 (let ((?x9412 (bvadd (_ bv63 6) ?x218)))
 (let ((?x275 (sc_s 3)))
 (let (($x254 (= ?x275 ?x9412)))
 (let ((?x9873 (used_gas_s x_0 x_1 x_2 x_3 w_1 3)))
 (let (($x247 (exc_halt_s 2)))
 (let (($x50 (= $x247 (or (exc_halt_s 1) (not (bvsle (_ bv0 6) (bvadd (_ bv60 6) (sc_s 1))))))))
 (let (($x9959 (forall ((w (_ BitVec 256)) )(let ((?x3034 (storage_s x_0 x_1 x_2 x_3 w_1 1 w)))
 (let ((?x2993 (storage_s x_0 x_1 x_2 x_3 w_1 2 w)))
 (= ?x2993 ?x3034))))
 ))
 (let (($x8645 (forall ((n (_ BitVec 6)) )(let ((?x2418 (stack_s x_0 x_1 x_2 x_3 w_1 1 n)))
 (let ((?x1808 (stack_s x_0 x_1 x_2 x_3 w_1 2 n)))
 (let (($x8227 (= ?x1808 ?x2418)))
 (or (bvsle (bvadd (_ bv60 6) (sc_s 1)) n) $x8227)))))
 ))
 (let ((?x154 (sc_s 1)))
 (let (($x675 (= ?x218 ?x154)))
 (let ((?x8616 (used_gas_s x_0 x_1 x_2 x_3 w_1 2)))
 (let (($x6389 (= ?x8616 (+ 3 (used_gas_s x_0 x_1 x_2 x_3 w_1 1)))))
 (let ((?x9977 (bvadd (_ bv62 6) ?x154)))
 (let ((?x11536 (stack_s x_0 x_1 x_2 x_3 w_1 1 ?x9977)))
 (let ((?x11936 (bvadd (_ bv62 6) ?x218)))
 (let ((?x786 (stack_s x_0 x_1 x_2 x_3 w_1 2 ?x11936)))
 (let (($x5114 (= ?x786 ?x11536)))
 (let ((?x9786 (bvadd (_ bv61 6) ?x154)))
 (let ((?x11340 (stack_s x_0 x_1 x_2 x_3 w_1 1 ?x9786)))
 (let ((?x8710 (bvadd (_ bv61 6) ?x218)))
 (let ((?x4341 (stack_s x_0 x_1 x_2 x_3 w_1 2 ?x8710)))
 (let ((?x2167 (bvadd (_ bv63 6) ?x154)))
 (let ((?x9844 (stack_s x_0 x_1 x_2 x_3 w_1 1 ?x2167)))
 (let ((?x1125 (stack_s x_0 x_1 x_2 x_3 w_1 2 ?x9412)))
 (let (($x189 (exc_halt_s 1)))
 (let (($x5274 (= $x189 (or $x57 (not (bvsle (_ bv0 6) (bvadd (_ bv62 6) ?x72)))))))
 (let (($x7322 (forall ((w (_ BitVec 256)) )(let ((?x600 (storage_s x_0 x_1 x_2 x_3 w_1 0 w)))
 (let ((?x3034 (storage_s x_0 x_1 x_2 x_3 w_1 1 w)))
 (= ?x3034 ?x600))))
 ))
 (let (($x7293 (forall ((n (_ BitVec 6)) )(let ((?x4332 (stack_s x_0 x_1 x_2 x_3 w_1 0 n)))
 (let ((?x2418 (stack_s x_0 x_1 x_2 x_3 w_1 1 n)))
 (let (($x10989 (= ?x2418 ?x4332)))
 (let ((?x72 (sc_s 0)))
 (let ((?x1090 (bvadd (_ bv62 6) ?x72)))
 (let (($x2785 (bvsle ?x1090 n)))
 (or $x2785 $x10989))))))))
 ))
 (let ((?x7896 (used_gas_s x_0 x_1 x_2 x_3 w_1 1)))
 (let (($x641 (= ?x7896 (+ 3 ?x4974))))
 (let (($x8107 (forall ((w (_ BitVec 256)) )(let ((?x600 (storage_s x_0 x_1 x_2 x_3 w_1 0 w)))
 (= ?x600 (_ bv0 256))))
 ))
 (let (($x6696 (= ?x4974 0)))
 (let (($x7449 (not $x57)))
 (let (($x6930 (= (stack_s x_0 x_1 x_2 x_3 w_1 0 (_ bv3 6)) x_3)))
 (let (($x11524 (= (stack_s x_0 x_1 x_2 x_3 w_1 0 (_ bv2 6)) x_2)))
 (let (($x6243 (= (stack_s x_0 x_1 x_2 x_3 w_1 0 (_ bv1 6)) x_1)))
 (let (($x1091 (= (stack_s x_0 x_1 x_2 x_3 w_1 0 (_ bv0 6)) x_0)))
 (let (($x11199 (= ?x72 (_ bv4 6))))
 (and $x11199 $x1091 $x6243 $x11524 $x6930 $x7449 $x6696 $x8107 (= ?x9844 (stack_s x_0 x_1 x_2 x_3 w_1 0 (bvadd (_ bv62 6) ?x72))) (= ?x11536 (stack_s x_0 x_1 x_2 x_3 w_1 0 (bvadd (_ bv63 6) ?x72))) $x641 (= ?x154 ?x72) $x7293 $x7322 $x5274 (= ?x1125 (stack_s x_0 x_1 x_2 x_3 w_1 1 (bvadd (_ bv60 6) ?x154))) (= (stack_s x_0 x_1 x_2 x_3 w_1 2 (bvadd (_ bv60 6) ?x218)) ?x9844) (= ?x4341 ?x11340) $x5114 $x6389 $x675 $x8645 $x9959 $x50 (= ?x9873 (+ 2 ?x8616)) $x254 $x7088 $x10913 $x6355 (= (stack_s x_0 x_1 x_2 x_3 w_1 4 ?x275) w_1) $x3433 $x3039 $x836 $x4561 (= $x7172 (or $x292 $x4087)) $x11545 $x9089 $x10197 $x3901 $x2727 $x11570 $x9247 $x6649 $x1150 $x10431 $x5001 $x5460 (= (used_gas_t x_0 x_1 x_2 x_3 w_1 1) (+ 2 ?x3002)) $x4653 $x10469 $x3724 $x5967 (= ?x1862 ?x8520) (= (stack_t x_0 x_1 x_2 x_3 w_1 2 (bvadd (_ bv61 6) ?x6158)) ?x10642) (= (stack_t x_0 x_1 x_2 x_3 w_1 2 (bvadd (_ bv62 6) ?x6158)) ?x6777) $x6594 $x5077 $x5279 $x9499 $x11591 (= ?x3513 (+ 2 ?x3385)) $x1918 $x731 $x11573 $x10396 (= (stack_t x_0 x_1 x_2 x_3 w_1 4 ?x11304) w_1) $x11756 $x11867 $x4353 $x9158 $x9791 $x73 $x10820 $x58 $x1370 $x10070 (not (and $x7899 $x4470 $x4404 $x1123))))))))))))))))))))))))))))))))))))))))))))))))))))))))))))))))))))))))))))))))))))))))))))))))))))))))))))))))))))))))))))))))
 )
(check-sat)
(get-proof)
